<number of tasks>
100

<cycle time>
1000

<order strength>
0.605


<task times>
1 209
2 138
3 168
4 71
5 120
6 144
7 129
8 274
9 102
10 162
11 114
12 134
13 90
14 114
15 174
16 35
17 285
18 128
19 113
20 161
21 168
22 101
23 29
24 184
25 175
26 154
27 46
28 172
29 70
30 173
31 175
32 71
33 36
34 139
35 105
36 39
37 224
38 176
39 228
40 151
41 290
42 68
43 135
44 64
45 103
46 234
47 223
48 189
49 151
50 79
51 210
52 127
53 268
54 141
55 109
56 40
57 241
58 35
59 107
60 90
61 65
62 63
63 101
64 174
65 230
66 88
67 29
68 196
69 165
70 216
71 205
72 68
73 197
74 220
75 38
76 224
77 204
78 116
79 109
80 50
81 185
82 146
83 98
84 121
85 171
86 139
87 90
88 243
89 65
90 154
91 194
92 116
93 161
94 140
95 85
96 193
97 50
98 91
99 36
100 64

<precedence relations>
1,5
1,6
2,8
2,14
2,15
3,7
3,8
4,6
4,8
5,11
6,9
6,12
6,13
6,14
6,15
7,10
7,12
7,13
7,14
7,15
8,12
8,13
9,18
10,19
11,16
12,17
12,20
12,21
12,30
13,22
13,54
13,62
13,63
13,79
14,21
14,22
14,23
15,22
15,23
15,40
16,24
17,25
18,26
19,29
20,27
21,28
21,29
21,38
22,58
22,68
23,28
23,30
24,31
25,33
26,34
27,35
28,32
28,36
28,37
28,39
29,40
30,36
30,38
31,41
32,42
33,43
34,43
35,44
36,45
36,52
37,43
37,44
38,52
39,43
40,43
41,46
42,47
43,47
43,48
43,49
44,49
44,79
45,54
45,61
45,62
45,68
46,50
47,51
47,52
48,60
48,68
48,73
49,54
49,58
49,62
49,68
50,54
51,53
52,54
52,55
52,56
52,57
52,58
53,59
54,60
54,72
55,60
55,63
55,73
56,62
56,66
56,72
56,73
57,60
57,67
57,68
57,79
58,61
59,64
60,65
60,66
60,89
61,67
62,74
62,75
63,68
64,69
65,70
66,71
66,75
66,87
67,72
67,73
67,74
68,74
68,95
69,79
70,77
71,78
72,76
72,82
72,99
72,100
73,80
74,81
76,83
77,84
78,85
79,87
80,86
80,87
80,89
81,88
81,89
82,89
82,95
83,90
84,94
85,95
86,91
87,92
88,93
90,96
91,99
92,97
93,98
94,100

<end>
